========================================================== 
File name: C:\DEGR\assets\definitions\MSRCPSP_Gen\500_10_512_5_A.def
Creation date: Sat May 06 09:15:05 CEST 2023
Website: http://imopse.ii.pwr.edu.pl/ 
Reference: 
Myszkowski P. B., Skowronski M. E., Olech L., Oslizlo K., 
Hybrid Ant Colony Optimization in solving Multi-Skill Resource-Constrained Project Scheduling Problem, 
Soft Computing, DOI: DOI 10.1007/s00500-014-1455-x 
========================================================== 
General characteristics: 
Tasks: 500
Resources: 10
Precedence relations: 510
Number of skill types: 5
========================================================== 
ResourceID 	 Salary 	 Skills 
1	 	 	61.2	 	 Q4: 1 	  Q3: 1 	  Q0: 2 	  Q2: 1 	 
2	 	 	63.5	 	 Q3: 3 	  Q1: 2 	 
3	 	 	82.5	 	 Q1: 0 	  Q3: 1 	  Q2: 0 	 
4	 	 	15.2	 	 Q0: 1 	  Q4: 1 	 
5	 	 	53.9	 	 Q1: 2 	  Q2: 0 	  Q0: 3 	  Q3: 2 	 
6	 	 	82.9	 	 Q3: 1 	  Q4: 1 	 
7	 	 	95.6	 	 Q2: 3 	  Q1: 3 	  Q4: 2 	  Q0: 1 	 
8	 	 	61.8	 	 Q1: 3 	  Q4: 2 	  Q3: 2 	 
9	 	 	56.9	 	 Q1: 1 	  Q4: 3 	  Q0: 3 	  Q3: 3 	 
10	 	 	49.8	 	 Q0: 0 	  Q3: 3 	  Q4: 2 	 
========================================================== 
TaskID 	 Duration 	 Skill 	 Predecessor IDs 
1	30	Q2:	1
2	20	Q0:	0
3	15	Q1:	2
4	32	Q2:	1
5	19	Q4:	3	3
6	25	Q3:	1	3
7	12	Q3:	2
8	30	Q0:	1
9	18	Q3:	3
10	38	Q4:	2
11	35	Q4:	2
12	24	Q3:	1
13	15	Q3:	3
14	30	Q0:	2
15	17	Q1:	0
16	31	Q1:	0	8
17	30	Q2:	3
18	25	Q0:	2
19	30	Q3:	3
20	16	Q3:	2
21	21	Q3:	1
22	37	Q3:	2
23	29	Q1:	2
24	31	Q0:	2
25	38	Q1:	3
26	34	Q1:	1
27	23	Q3:	3
28	34	Q0:	3
29	19	Q1:	3
30	20	Q3:	3
31	18	Q1:	0
32	12	Q3:	3	7
33	9	Q0:	3
34	33	Q1:	1
35	18	Q4:	2	23
36	12	Q3:	2
37	9	Q0:	0
38	9	Q4:	1
39	40	Q4:	2
40	18	Q3:	3
41	16	Q2:	0
42	19	Q4:	3	33
43	28	Q2:	1
44	15	Q2:	3
45	12	Q0:	2
46	21	Q0:	2
47	37	Q4:	1
48	32	Q0:	2
49	37	Q0:	3
50	10	Q4:	1
51	13	Q2:	0
52	17	Q1:	2
53	14	Q0:	2
54	17	Q3:	3
55	16	Q2:	0	19
56	16	Q0:	0
57	28	Q0:	3
58	36	Q3:	3
59	23	Q2:	3
60	18	Q4:	2
61	31	Q1:	2
62	21	Q3:	2
63	28	Q1:	2
64	35	Q2:	3	56
65	38	Q2:	0
66	21	Q2:	3	6
67	29	Q0:	0	47
68	16	Q3:	2	36
69	21	Q4:	3
70	27	Q2:	3	33
71	29	Q3:	2
72	25	Q3:	3
73	31	Q3:	1
74	21	Q3:	2
75	17	Q2:	3
76	29	Q4:	2	3	32
77	32	Q3:	3
78	9	Q2:	0
79	9	Q1:	3
80	30	Q0:	2
81	9	Q2:	0
82	24	Q2:	0
83	23	Q1:	2
84	38	Q1:	3
85	15	Q0:	0
86	20	Q2:	0
87	21	Q3:	2
88	12	Q2:	0	87
89	15	Q2:	3
90	11	Q1:	0
91	32	Q3:	3
92	24	Q0:	2	33	4
93	25	Q0:	0	50
94	39	Q3:	3
95	23	Q2:	0
96	30	Q2:	1	49
97	23	Q1:	3
98	9	Q3:	1
99	21	Q0:	2	83	70
100	23	Q1:	1
101	26	Q4:	3
102	27	Q2:	1
103	38	Q0:	1
104	25	Q4:	2	101
105	10	Q0:	0
106	37	Q3:	2	58
107	34	Q1:	0
108	23	Q3:	2
109	12	Q4:	3
110	21	Q4:	3
111	40	Q3:	1
112	34	Q0:	0
113	34	Q2:	3
114	22	Q1:	3
115	29	Q1:	0
116	15	Q1:	2
117	32	Q4:	3
118	23	Q3:	3	37
119	33	Q1:	2	15
120	31	Q1:	2
121	37	Q1:	2	98
122	21	Q3:	2
123	29	Q2:	3	61
124	10	Q2:	1
125	31	Q4:	3	80
126	11	Q0:	1	15
127	39	Q3:	2
128	16	Q1:	0
129	40	Q0:	2	46	95
130	38	Q3:	1	118	101
131	11	Q1:	0	112
132	9	Q1:	1
133	28	Q4:	3
134	9	Q2:	0
135	10	Q4:	2
136	32	Q0:	3	47
137	34	Q3:	2
138	40	Q3:	1
139	27	Q4:	3
140	16	Q0:	0
141	36	Q3:	3	83
142	17	Q1:	3
143	23	Q3:	3
144	24	Q1:	2
145	14	Q2:	0
146	22	Q4:	1
147	35	Q2:	0
148	27	Q0:	0	84
149	25	Q4:	3
150	28	Q1:	1	104	65
151	25	Q0:	0
152	31	Q4:	2
153	12	Q0:	2	140
154	14	Q0:	2
155	38	Q3:	3	67
156	28	Q4:	2
157	20	Q4:	3	85
158	31	Q3:	3
159	21	Q0:	3	120
160	27	Q4:	2
161	10	Q3:	1
162	21	Q3:	1
163	38	Q4:	2	91
164	39	Q4:	3
165	11	Q3:	3
166	16	Q4:	3	122
167	9	Q4:	1	152
168	25	Q4:	3
169	33	Q1:	2
170	14	Q2:	3	9
171	29	Q2:	1	56
172	38	Q0:	2
173	27	Q1:	0	171
174	34	Q4:	2
175	34	Q2:	3
176	28	Q1:	0	136
177	21	Q0:	1
178	29	Q2:	3	131
179	23	Q1:	2
180	12	Q0:	3
181	32	Q3:	2	146	151	30
182	25	Q1:	3
183	35	Q4:	2	15
184	35	Q1:	1	164	112
185	27	Q3:	3
186	27	Q1:	3
187	16	Q1:	1	105
188	9	Q3:	3
189	26	Q4:	2	161
190	9	Q1:	2
191	24	Q4:	1	28	134
192	28	Q3:	2	177
193	27	Q4:	2
194	22	Q2:	1	22	139
195	20	Q4:	2	149	31	124
196	9	Q1:	1	134
197	25	Q0:	3
198	39	Q0:	2	9
199	13	Q4:	1
200	37	Q0:	0	197
201	13	Q1:	0
202	28	Q2:	1
203	16	Q1:	3	64
204	16	Q3:	2	23
205	32	Q4:	3	138
206	9	Q1:	1	191
207	36	Q3:	2	137
208	31	Q3:	1	137	99
209	14	Q4:	2	116
210	33	Q3:	3	209
211	11	Q1:	0
212	21	Q0:	2	116	41
213	22	Q2:	1	52
214	27	Q4:	1	40
215	27	Q2:	1
216	30	Q3:	2	135
217	29	Q0:	0	42
218	40	Q3:	3
219	38	Q3:	1	58	48
220	14	Q4:	1	145
221	15	Q0:	0
222	19	Q1:	0	153	128
223	19	Q3:	1	15	144
224	23	Q1:	2
225	19	Q2:	3	215	134
226	36	Q1:	3	60
227	34	Q0:	0
228	11	Q3:	1	104
229	30	Q0:	0
230	33	Q4:	1	135
231	37	Q1:	2	196	95	131
232	29	Q3:	2
233	14	Q0:	1
234	33	Q2:	3	215
235	34	Q1:	0	103
236	32	Q1:	2	141	75
237	30	Q4:	2
238	32	Q3:	3	129
239	32	Q2:	0	223
240	30	Q4:	3
241	23	Q2:	3
242	13	Q1:	2	109
243	20	Q4:	1	4
244	13	Q4:	2	238	14
245	38	Q1:	1
246	27	Q3:	1
247	23	Q3:	2	55	189	70
248	9	Q1:	2	148	239
249	11	Q3:	1
250	30	Q0:	1	12	236
251	11	Q2:	3	55
252	40	Q0:	1
253	11	Q2:	0	148	131	2
254	10	Q3:	1	40	241
255	20	Q3:	3	111
256	18	Q3:	3
257	27	Q1:	0	223	26
258	30	Q4:	2	126
259	36	Q4:	2
260	27	Q4:	1	11
261	23	Q3:	2	259
262	23	Q4:	2	70
263	13	Q4:	1	65	144
264	28	Q2:	1	184
265	33	Q4:	2
266	16	Q2:	0	8
267	11	Q2:	1	12
268	34	Q0:	2	80	64	215
269	34	Q1:	2	176
270	32	Q0:	3	117	251
271	10	Q4:	2	19	111
272	33	Q4:	1	39	68	155	188
273	10	Q2:	1	188
274	14	Q1:	0	236
275	12	Q3:	3	40	86	123
276	33	Q1:	3	198	204	28	79
277	39	Q1:	2	133	220
278	13	Q0:	3	146
279	40	Q4:	1	262
280	15	Q3:	3	196
281	30	Q4:	2
282	34	Q1:	1
283	30	Q3:	1	198	171
284	28	Q4:	2	219
285	20	Q1:	1	66	46
286	37	Q4:	1
287	32	Q3:	2	63
288	22	Q4:	3	255	133	194
289	38	Q2:	1
290	19	Q1:	0	212
291	25	Q2:	1
292	21	Q4:	2
293	26	Q1:	2
294	40	Q0:	3	65
295	17	Q1:	3
296	20	Q1:	3	111
297	25	Q0:	1	14
298	36	Q0:	0	78
299	23	Q1:	2	103
300	39	Q1:	0	263
301	14	Q1:	0	131
302	10	Q3:	2	217	166
303	17	Q4:	1	48	232
304	26	Q4:	1
305	31	Q0:	1	88	143
306	38	Q2:	3	223	140
307	36	Q3:	2	111
308	19	Q1:	2	251
309	19	Q1:	1	27	257
310	33	Q1:	2	189	301	50
311	13	Q1:	0	68	196
312	37	Q0:	0	113	307
313	28	Q0:	0	311
314	30	Q0:	3	78
315	13	Q1:	2	112
316	38	Q0:	1	39	147
317	16	Q0:	0	286
318	20	Q3:	2
319	31	Q1:	1
320	19	Q0:	2	142	7	8
321	29	Q2:	3	10	74	148
322	34	Q0:	1	288	230
323	32	Q2:	3	241
324	34	Q4:	2	295	52	262
325	12	Q2:	3
326	23	Q3:	3	252	214
327	38	Q2:	3
328	36	Q2:	1	300	50
329	36	Q1:	0
330	40	Q0:	1	268	175	252
331	28	Q0:	1
332	28	Q4:	3	23	8	287
333	17	Q3:	1
334	28	Q4:	1
335	23	Q1:	2
336	22	Q4:	3	334
337	24	Q1:	1	221
338	13	Q4:	3	190
339	25	Q4:	1	46	298	281
340	30	Q2:	3
341	32	Q3:	1	98	113
342	39	Q4:	2	179	224
343	40	Q2:	3	47
344	40	Q1:	3	285	336	133
345	27	Q2:	0
346	12	Q2:	1	290	313
347	13	Q2:	1	173	15
348	17	Q4:	2	151	44	74
349	31	Q1:	2	186
350	27	Q2:	3	136	2
351	24	Q4:	1	282
352	24	Q4:	3
353	39	Q1:	3
354	20	Q1:	3	87	197
355	18	Q3:	1
356	37	Q0:	2
357	29	Q4:	1	144	223	139
358	24	Q0:	1
359	38	Q1:	2	193	51	245	237	293
360	31	Q3:	3	286	307
361	33	Q0:	2	19	254	72
362	12	Q4:	1	247	133
363	21	Q1:	1	200	182
364	33	Q1:	2	30	329	34
365	39	Q1:	2
366	15	Q2:	3	28	109
367	11	Q1:	2
368	16	Q0:	1	65	47
369	17	Q0:	3	40	363	151
370	19	Q2:	0	71	234	90	274
371	16	Q1:	0
372	39	Q0:	1	42	224	290	252
373	34	Q0:	3	330
374	34	Q4:	3	276	119
375	31	Q4:	2	308	283
376	33	Q2:	3
377	27	Q2:	0	196	27
378	16	Q0:	2
379	25	Q3:	2	37	262
380	21	Q2:	3	192	236
381	34	Q0:	2	144	90	343
382	15	Q3:	3	73
383	22	Q0:	3	131
384	34	Q1:	1	257
385	33	Q1:	3	115
386	11	Q1:	1	312	83
387	35	Q1:	3	24
388	38	Q0:	0	329
389	15	Q2:	1	200
390	29	Q1:	3
391	12	Q3:	1	189	231	194	103	16
392	18	Q0:	2	23	32
393	16	Q2:	1	229	25
394	31	Q0:	3
395	40	Q3:	1
396	16	Q3:	1
397	35	Q4:	1	237	40	10
398	23	Q2:	0	177	309	219	134	260	376	180	178
399	16	Q4:	2	344	322	81	111
400	12	Q2:	0	25
401	25	Q1:	2	16	351
402	12	Q2:	0
403	31	Q1:	3	376	98
404	13	Q4:	2	181
405	24	Q0:	2	49
406	22	Q3:	2	392
407	34	Q0:	2	333	290	329
408	23	Q1:	2	55	401
409	33	Q4:	3
410	22	Q1:	3	334	23
411	27	Q1:	0	94	146
412	32	Q0:	1	219
413	10	Q3:	3	136
414	31	Q1:	0	329	343	33
415	8	Q3:	1	330	101	41
416	35	Q3:	2	79	255
417	30	Q4:	2	140	91	366
418	12	Q0:	0	112	279	265
419	15	Q3:	3	13	384	368
420	19	Q4:	2	102	416
421	10	Q0:	0	28
422	21	Q3:	1
423	39	Q3:	3
424	27	Q0:	0	407	88	217	57	8
425	24	Q4:	2	176	164
426	19	Q4:	1	230	109
427	14	Q1:	0	114	138	406
428	38	Q0:	3	91	346
429	30	Q1:	0	184	45
430	16	Q1:	0	114	107
431	11	Q1:	1	36	126
432	27	Q1:	2	236
433	19	Q4:	2	373	214
434	40	Q4:	3
435	26	Q2:	3	429	174	342
436	40	Q0:	1	82
437	28	Q3:	1	295
438	12	Q3:	3
439	26	Q0:	0
440	36	Q3:	1	346	407
441	20	Q3:	1	422	277	414
442	25	Q2:	1	91	167
443	27	Q1:	3	298
444	35	Q1:	3	54	212
445	39	Q0:	0	432
446	34	Q1:	0	387	186
447	28	Q0:	3	241
448	11	Q3:	1	74
449	38	Q1:	3	393	391	301
450	30	Q0:	1	315
451	39	Q0:	1	273	355
452	27	Q3:	2
453	10	Q2:	1	294
454	13	Q2:	3	383
455	9	Q3:	3	449	214
456	30	Q2:	3	273
457	9	Q4:	1	425	302
458	39	Q2:	0	209	434
459	13	Q1:	2	424	327
460	23	Q4:	2	35
461	16	Q0:	2	308	371
462	20	Q1:	1	427	414	398	318
463	20	Q3:	1	38	52	254	167
464	12	Q2:	0	197
465	37	Q1:	2	329	445	432
466	13	Q0:	0	462
467	9	Q4:	2	263
468	17	Q0:	3	62
469	31	Q4:	1	325	142
470	21	Q4:	2	186	326	400
471	32	Q0:	3	412
472	17	Q4:	3	13	273	114	192
473	20	Q1:	2	443	426
474	16	Q3:	3	92	131
475	24	Q4:	3	463	158
476	12	Q2:	1	140
477	9	Q2:	1	143	4	168
478	18	Q3:	3	427
479	14	Q1:	3	58	385
480	18	Q1:	1	462	79	171
481	12	Q1:	1	96	160	148	413
482	9	Q4:	3
483	17	Q1:	1	167	238	154	395
484	27	Q3:	1	260	339	17
485	37	Q4:	1
486	22	Q0:	0	63
487	35	Q3:	3	2
488	12	Q2:	1	139	62	103
489	16	Q0:	1	166
490	26	Q0:	1
491	13	Q3:	3	142
492	11	Q2:	3	437
493	17	Q1:	1
494	21	Q1:	0	432	170	493	44
495	25	Q2:	1	61	206
496	26	Q4:	1	11	143
497	32	Q2:	1	439	43	255
498	29	Q0:	1	303	107	334
499	38	Q3:	2
500	15	Q4:	3
========================================================== 